reinit: Reading from standard input
reinit: Dumped input in INPUT_TMP.78836
************************** Dump of input data file ****************************
# Created by GDIS version 0.90.0
#ZrO2 pure without variable cell
SystemLabel     ZrO2-G
#                       Crystal flags
NumberOfAtoms    12
NumberOfSpecies  3
%block ChemicalSpeciesLabel
    1    8  O
    2   40  Zr
#    3   39  Y
    3   -8 VO
%endblock ChemicalSpeciesLabel
LatticeConstant 1.0 Ang
%block LatticeParameters
  5.177213    5.177213    5.177213  90.000000  90.000000  90.000000
%endblock LatticeParameters
AtomicCoordinatesFormat Fractional
%block AtomicCoordinatesAndAtomicSpecies
    0.25000000    0.25000000    0.25000000   3       1  VO
    0.75000000    0.75000000    0.75000000   1       2  O
    0.75000000    0.75000000    0.25000000   1       3  O
    0.25000000    0.25000000    0.75000000   1       4  O
    0.75000000    0.25000000    0.75000000   1       5  O
    0.25000000    0.75000000    0.25000000   1       6  O
    0.25000000    0.75000000    0.75000000   1       7  O
    0.75000000    0.25000000    0.25000000   1       8  O
   -0.00000000   -0.00000000   -0.00000000   2       9  Zr
   -0.00000000    0.50000000    0.50000000   2      10  Zr
    0.50000000   -0.00000000    0.50000000   2      11  Zr
    0.50000000    0.50000000   -0.00000000   2      12  Zr
%endblock AtomicCoordinatesAndAtomicSpecies
#%block Geometry.Constraints
#atom 1
#%endblock Geometry.Constraints
#                       Basis flags
%block PAO.Basis
 Zr   4
   n=5  0  2
        5.6054862       -0.6003580
        1.000   1.000
   n=4  1  2
        5.5279442       -0.4575023
        1.000           1.000
   n=5  1  1
        4.7571701
        1.000
   n=4  2  2
        6.0921820       -0.5609145
        1.000           1.000
O     3   -0.4158308
 n=2   0   2   E  25.2217485   -0.7787941
   4.1893036           -0.5955594
   1.00000             1.00000
 n=2   1   2   E  13.2644853   -0.7950761
   6.0475603           -0.6742187
   1.00000             1.00000
 n=3   2   1   E  45.9587470   -0.7957318
   3.2675257
   1.00000
VO     3   -0.4158308
 n=2   0   2   E  25.2217485   -0.7787941
   4.1893036           -0.5955594
   1.00000             1.00000
 n=2   1   2   E  13.2644853   -0.7950761
   6.0475603           -0.6742187
   1.00000             1.00000
 n=3   2   1   E  45.9587470   -0.7957318
   3.2675257
   1.00000
%endblock PAO.Basis
#Y    4      0.18480
3 n=5   0   2   E    54.30244     1.81665
#     3.73233     2.17478
#     1.00000     1.00000
# n=4   1   2   E    34.29848     2.87971
#     4.91942     2.39915
#     1.00000     1.00000
# n=5   1   1   E    42.47320     1.98078
#     3.52352
#     1.00000
# n=4   2   2   E    12.30267     2.52239
#     5.23907     3.07050
#     1.00000     1.00000
#%block kgrid_Monkhorst_Pack
#3    0    0     0.0
#0    3    0     0.0
#0    0    3     0.0
#%endblock kgrid_Monkhorst_Pack
MeshCutoff 		600  Ry
XC.functional 		GGA
XC.authors 		revPBE
SpinPolarized           .true.
#                       DM flags
DM.MixingWeight 	0.20
DM.NumberPulay          4
DM.UseSaveDM            .true.
DM.Tolerance 		1.0d-4
MaxSCFIterations 	150
#                       MD flags
MD.MaxCGDispl           0.1 Bohr
MD.TypeOfRun            CG
MD.VariableCell         .true.
MD.NumCGsteps           0
MD.MaxForceTol          0.04000 eV/Ang
MD.UseSaveXV            .true.
#                       Electronic flags
ElectronicTemperature   5 K
NumberOfEigenStates     800
#COOP.Write             .true.
#WFS.Write.For.Bands    .true.
BandLinesScale ReciprocalLatticeVectors
%block BandLines
  1  0.000 0.000 0.000  \Gamma
 200  0.500 0.500 0.000  M
 200  0.000 0.500 0.000  X
 200  0.000 0.000 0.000  \Gamma
 200  0.500 0.500 0.500  R
 200  0.000 0.000 0.000  \Gamma
%endblock BandLines
UseNewDiagk            .false.
Diag.ParallelOverK     .false.
LongOutput
WriteMDHistory         .true.
WriteMDXmol            .true.
%block kgrid_Monkhorst_Pack
   9   0   0       0.00
   0   9   0       0.00
   0   0   9       0.00
%endblock kgrid_Monkhorst_Pack
SaveTotalPotential T
SaveRho T
************************** End of input data file *****************************

reinit: -----------------------------------------------------------------------
reinit: System Name:
reinit: -----------------------------------------------------------------------
reinit: System Label: ZrO2-G
reinit: -----------------------------------------------------------------------
Siesta Version: siesta-4.1--736
Architecture  : unknown
Compiler flags: mpif90 -O2 -fPIC -ftree-vectorize
PP flags      : -DFC_HAVE_ABORT -DMPI -DFC_HAVE_FLUSH -DFC_HAVE_ABORT -DGRID_DP -DPHI_GRID_SP -DSIESTA__FLOOK
Libraries     :  /usr/lib/libscalapack-openmpi.so   libsiestaLAPACK.a libsiestaBLAS.a libfdict.a /usr/lib/libblacsF77init-openmpi.so /usr/lib/libblacsCinit-openmpi.so /usr/lib/libblacs-openmpi.so  -lflookall -ldl
PARALLEL version

>> Start of run:  25-JUL-2019  10:34:14

initatom: Reading input for the pseudopotentials and atomic orbitals ----------
Species number:   1 Atomic number:    8 Label: O
Species number:   2 Atomic number:   40 Label: Zr
Species number:   3 Atomic number:   -8 Label: VO (floating PAOs)

Ground state valence configuration:   2s02  2p04
Reading pseudopotential information in formatted form from O.psf

Pseudopotential generated from a relativistic atomic calculation
There are spin-orbit pseudopotentials available
Spin-orbit interaction is not included in this calculation

Valence configuration for pseudopotential generation:
2s( 2.00) rc: 1.14
2p( 4.00) rc: 1.14
3d( 0.00) rc: 1.14
4f( 0.00) rc: 1.48
Ground state valence configuration:   5s02  4d02
Reading pseudopotential information in formatted form from Zr.psf

[...]

Valence configuration for pseudopotential generation:
5s( 2.00) rc: 3.00
4p( 6.00) rc: 1.49
4d( 2.00) rc: 1.40
4f( 0.00) rc: 1.19
Ground state valence configuration:   2s02  2p04
Reading pseudopotential information in formatted form from VO.psf

Pseudopotential generated from a relativistic atomic calculation
There are spin-orbit pseudopotentials available
Spin-orbit interaction is not included in this calculation

Valence configuration for pseudopotential generation:
2s( 2.00) rc: 1.14
2p( 4.00) rc: 1.14
3d( 0.00) rc: 1.14
4f( 0.00) rc: 1.48
Semicore shell(s) with  6 electrons included in the valence for
Zr
For O, standard SIESTA heuristics set lmxkb to 3
 (one more than the basis l, including polarization orbitals).
Use PS.lmax or PS.KBprojectors blocks to override.
For Zr, standard SIESTA heuristics set lmxkb to 3
 (one more than the basis l, including polarization orbitals).
Use PS.lmax or PS.KBprojectors blocks to override.

<basis_specs>
O                    Z=   8    Mass=  16.000        Charge=-0.41583
Lmxo=2 Lmxkb= 3    BasisType=split      Semic=F
L=0  Nsemic=0  Cnfigmx=2
          n=1  nzeta=2  polorb=0
            splnorm:   0.15000
               vcte:    25.222
               rinn:  -0.77879
               qcoe:    0.0000
               qyuk:    0.0000
               qwid:   0.10000E-01
                rcs:    4.1893    -0.59556
            lambdas:    1.0000      1.0000
L=1  Nsemic=0  Cnfigmx=2
          n=1  nzeta=2  polorb=0
            splnorm:   0.15000
               vcte:    13.264
               rinn:  -0.79508
               qcoe:    0.0000
               qyuk:    0.0000
               qwid:   0.10000E-01
                rcs:    6.0476    -0.67422
            lambdas:    1.0000      1.0000
L=2  Nsemic=0  Cnfigmx=3
          n=1  nzeta=1  polorb=0
            splnorm:   0.15000
               vcte:    45.959
               rinn:  -0.79573
               qcoe:    0.0000
               qyuk:    0.0000
               qwid:   0.10000E-01
                rcs:    3.2675
            lambdas:    1.0000
L=0  Nkbl=1  erefs: 0.17977+309
L=1  Nkbl=1  erefs: 0.17977+309
L=2  Nkbl=1  erefs: 0.17977+309
L=3  Nkbl=1  erefs: 0.17977+309
</basis_specs>

atom: Called for O                     (Z =   8)

read_vps: Pseudopotential generation method:
read_vps: ATM3.3    Troullier-Martins
Total valence charge:    6.00000

read_vps: Pseudopotential includes a core correction:
read_vps: Pseudo-core for xc-correction

xc_check: Exchange-correlation functional:
xc_check: GGA revPBE
V l=0 = -2*Zval/r beyond r=  1.1278
V l=1 = -2*Zval/r beyond r=  1.1278
V l=2 = -2*Zval/r beyond r=  1.1278
V l=3 = -2*Zval/r beyond r=  1.4665
All V_l potentials equal beyond r=  1.4482
This should be close to max(r_c) in ps generation
All pots = -2*Zval/r beyond r=  1.4665

VLOCAL1: 99.0% of the norm of Vloc inside     20.696 Ry
VLOCAL1: 99.9% of the norm of Vloc inside     47.167 Ry
atom: Maximum radius for 4*pi*r*r*local-pseudopot. charge    1.74697
atom: Maximum radius for r*vlocal+2*Zval:    1.52250
GHOST: No ghost state for L =  0
GHOST: No ghost state for L =  1
GHOST: No ghost state for L =  2
GHOST: No ghost state for L =  3

KBgen: Kleinman-Bylander projectors:
   l= 0   rc=  1.620715   el= -1.762453   Ekb= 12.304028   kbcos=  0.151877
   l= 1   rc=  1.600578   el= -0.659331   Ekb=-10.019323   kbcos= -0.441129
   l= 2   rc=  1.725262   el=  0.001944   Ekb= -2.779253   kbcos= -0.005180
   l= 3   rc=  2.271458   el=  0.003066   Ekb= -0.634310   kbcos= -0.000917

KBgen: Total number of  Kleinman-Bylander projectors:   16
atom: -------------------------------------------------------------------------

atom: SANKEY-TYPE ORBITALS:
atom: Selected multiple-zeta basis: split

atom: basis set generated (by rescaling the valence charge)
atom: for an anion of charge  -0.4158

SPLIT: Orbitals with angular momentum L= 0

SPLIT: Basis orbitals for state 2s

   izeta = 1
                 lambda =    1.000000
                     rc =    4.243912
                 energy =   -1.754694
                kinetic =    1.459503
    potential(screened) =   -3.214196
       potential(ionic) =  -10.979225

   izeta = 2
                 rmatch =    2.573941
              splitnorm =    0.174700
                 energy =   -1.531239
                kinetic =    2.385766
    potential(screened) =   -3.917005
       potential(ionic) =  -12.378237

[...]

SPLIT: Basis orbitals for state 2p

[...]

SPLIT: Basis orbitals for state 3d

   izeta = 1
                 lambda =    1.000000
                     rc =    3.305093
                 energy =    2.272910
                kinetic =    3.561671
    potential(screened) =   -1.288760
       potential(ionic) =   -7.031728
atom: Total number of Sankey-type orbitals: 13

atm_pop: Valence configuration (for local Pseudopot. screening):
 2s( 2.00)
 2p( 4.00)
 3d( 0.00)
Vna: chval, zval:    6.00000   6.00000

Vna:  Cut-off radius for the neutral-atom potential:   6.022527
comcore: Pseudo-core radius Rcore=  1.377587

atom: _________________________________________________________________________

<basis_specs>
Zr                   Z=  40    Mass=  91.220        Charge= 0.17977+309
Lmxo=2 Lmxkb= 3    BasisType=split      Semic=T
L=0  Nsemic=0  Cnfigmx=5
          n=1  nzeta=2  polorb=0
            splnorm:   0.15000
               vcte:    0.0000
               rinn:    0.0000
               qcoe:    0.0000
               qyuk:    0.0000
[...]
  18    0.027294    0.027294    0.000000
  19    0.028900    0.028900    0.000000
  20    0.030506    0.030506    0.000000
  21    0.032111    0.032111    0.000000
  22    0.033717    0.033717    0.000000
  23    0.035322    0.035322    0.000000
  24    0.036928    0.036928    0.000000
  25    0.038533    0.038533    0.000000
  26    0.040139    0.040139    0.000000
  27    0.041744    0.041744    0.000000
  28    0.043350    0.043350    0.000000
  29    0.044956    0.044956    0.000000
  30    0.046561    0.046561    0.000000
  31    0.048167    0.048167    0.000000
  32    0.049772    0.049772    0.000000
  33    0.051378    0.051378    0.000000
  34    0.052983    0.052983    0.000000
  35    0.054589    0.054589    0.000000
  36    0.056194    0.056194    0.000000
  37    0.057800    0.057800    0.000000
  38    0.059405    0.059405    0.000000
  39    0.061011    0.061011    0.000000
  40    0.062617    0.062617    0.000000
  41    0.064222    0.064222    0.000000
  42    0.065828    0.065828    0.000000
  43    0.067433    0.067433    0.000000
  44    0.069039    0.069039    0.000000
  45    0.070644    0.070644    0.000000
  46    0.072250    0.072250    0.000000
  47    0.073855    0.073855    0.000000
  48    0.075461    0.075461    0.000000
  49    0.077067    0.077067    0.000000
  50    0.078672    0.078672    0.000000
  51    0.080278    0.080278    0.000000
  52    0.081883    0.081883    0.000000
  53    0.083489    0.083489    0.000000
  54    0.085094    0.085094    0.000000
  55    0.086700    0.086700    0.000000
  56    0.088305    0.088305    0.000000
  57    0.089911    0.089911    0.000000
  58    0.091517    0.091517    0.000000
  59    0.093122    0.093122    0.000000
  60    0.094728    0.094728    0.000000
[...]
 987    0.022478    0.022478    0.022478
 988    0.020872    0.020872    0.020872
 989    0.019267    0.019267    0.019267
 990    0.017661    0.017661    0.017661
 991    0.016056    0.016056    0.016056
 992    0.014450    0.014450    0.014450
 993    0.012844    0.012844    0.012844
 994    0.011239    0.011239    0.011239
 995    0.009633    0.009633    0.009633
 996    0.008028    0.008028    0.008028
 997    0.006422    0.006422    0.006422
 998    0.004817    0.004817    0.004817
 999    0.003211    0.003211    0.003211
1000    0.001606    0.001606    0.001606
1001    0.000000    0.000000    0.000000

siesta: Band energies (eV):
  ik is    eps
   1  1 -33.58 -33.58 -33.34 -33.13 -33.13 -33.13 -33.07 -33.07 -33.07 -32.92
        -32.92 -32.92 -24.85 -23.64 -23.64 -23.27 -23.04 -23.04 -22.60 -12.36
        -12.36 -12.36 -11.45 -11.45 -11.45  -9.91  -9.91  -9.91  -9.35  -9.35
         -9.35  -8.34  -8.34  -8.34  -7.66  -7.66  -7.66  -7.02  -7.02  -7.02
         -5.72  -3.58  -3.58  -3.46  -3.46  -3.46  -2.36  -2.36  -2.36  -1.41
         -1.41  -0.84  -0.84  -0.84  -0.73   0.07   0.07   0.07   1.43   1.43
          1.43   3.61   5.31   5.31   5.31   7.60   7.60   7.60   7.72   7.72
          8.85   8.85   8.85   9.51   9.89   9.89   9.89  10.73  10.73  10.73
         14.18  14.94  14.94  14.94  17.10  17.67  17.67  18.17  18.17  19.51
         19.51  19.70  19.70  19.70  20.52  21.19  21.19  21.19  21.98  21.98
         21.98  26.16  26.16  26.16  29.60  29.63  29.63  29.63  30.42  30.42
         30.42  32.05  32.05  32.05  32.75  32.75  32.75  33.65  33.65  33.65
         34.55  36.33  36.33  36.33  36.58  36.58  37.12  37.85  37.85  37.85
         38.45  38.45  40.62  40.95  40.95  42.16  42.16  42.16  42.62  42.62
         43.74  43.88  43.88  43.88  44.34  44.34  47.49  47.49  47.99  47.99
         47.99  49.32  50.44  50.44  51.84  51.84  51.84  53.58  55.13  55.13
         55.13  55.90  55.90  55.90  58.32  58.32  58.32  59.95  59.95  59.95
         79.30  79.30  79.30  81.03  81.03  81.03  88.43  88.43  88.43  88.87
         89.30  89.30 117.95 117.95 117.95 150.48 150.48 150.48
   2  1 -33.58 -33.58 -33.34 -33.13 -33.13 -33.13 -33.07 -33.07 -33.07 -32.92
        -32.92 -32.92 -24.85 -23.64 -23.64 -23.27 -23.04 -23.04 -22.60 -12.36
        -12.36 -12.36 -11.45 -11.45 -11.45  -9.91  -9.91  -9.91  -9.35  -9.35
         -9.35  -8.34  -8.34  -8.34  -7.66  -7.66  -7.66  -7.02  -7.02  -7.02
         -5.72  -3.58  -3.58  -3.46  -3.46  -3.46  -2.36  -2.36  -2.36  -1.41
         -1.41  -0.84  -0.84  -0.84  -0.73   0.07   0.07   0.07   1.43   1.43
          1.43   3.61   5.31   5.31   5.31   7.60   7.60   7.60   7.72   7.72
          8.85   8.85   8.85   9.50   9.89   9.89   9.90  10.73  10.73  10.73
         14.18  14.94  14.94  14.94  17.10  17.67  17.67  18.17  18.17  19.51
         19.51  19.70  19.70  19.70  20.52  21.19  21.19  21.19  21.98  21.98
         21.98  26.16  26.16  26.16  29.61  29.63  29.63  29.63  30.42  30.42
         30.42  32.04  32.04  32.05  32.75  32.75  32.75  33.65  33.65  33.65
         34.55  36.32  36.32  36.33  36.58  36.58  37.12  37.85  37.85  37.85
         38.45  38.45  40.62  40.95  40.95  42.16  42.16  42.16  42.62  42.62
         43.74  43.87  43.88  43.88  44.35  44.35  47.48  47.48  47.99  47.99
         47.99  49.30  50.41  50.42  51.84  51.84  51.84  53.57  55.13  55.13
         55.13  55.90  55.91  55.94  58.32  58.32  58.32  59.95  59.96  59.98
         79.30  79.30  79.30  81.03  81.03  81.03  88.42  88.42  88.43  88.87
         89.30  89.30 117.95 117.95 117.95 150.47 150.47 150.48
   3  1 -33.58 -33.58 -33.34 -33.13 -33.13 -33.13 -33.07 -33.07 -33.07 -32.92
        -32.92 -32.92 -24.85 -23.64 -23.64 -23.27 -23.04 -23.04 -22.61 -12.36
        -12.36 -12.36 -11.45 -11.45 -11.45  -9.91  -9.91  -9.91  -9.35  -9.35
         -9.35  -8.34  -8.34  -8.34  -7.66  -7.66  -7.66  -7.02  -7.02  -7.02
         -5.72  -3.58  -3.58  -3.46  -3.46  -3.46  -2.36  -2.36  -2.36  -1.41
         -1.41  -0.84  -0.84  -0.84  -0.73   0.07   0.07   0.07   1.43   1.43
          1.43   3.61   5.31   5.31   5.31   7.59   7.60   7.60   7.72   7.73
          8.85   8.85   8.85   9.49   9.89   9.89   9.91  10.73  10.73  10.73
         14.18  14.94  14.94  14.94  17.10  17.67  17.67  18.17  18.17  19.51
         19.51  19.70  19.70  19.71  20.52  21.19  21.19  21.20  21.98  21.98
         21.98  26.16  26.16  26.16  29.61  29.63  29.63  29.63  30.41  30.42
         30.42  32.04  32.04  32.05  32.75  32.75  32.75  33.65  33.65  33.66
         34.55  36.32  36.32  36.33  36.58  36.59  37.12  37.85  37.85  37.85
         38.45  38.45  40.62  40.95  40.95  42.15  42.16  42.16  42.62  42.62
         43.74  43.84  43.87  43.88  44.35  44.38  47.48  47.48  47.98  47.99
         47.99  49.23  50.34  50.38  51.83  51.84  51.84  53.55  55.13  55.13
         55.13  55.90  55.96  56.07  58.32  58.32  58.33  59.95  60.01  60.10
         79.30  79.30  79.30  81.02  81.03  81.03  88.41  88.42  88.42  88.87
         89.30  89.30 117.94 117.95 117.95 150.42 150.43 150.47
   4  1 -33.58 -33.58 -33.34 -33.13 -33.13 -33.13 -33.07 -33.07 -33.07 -32.92
        -32.92 -32.92 -24.85 -23.64 -23.64 -23.27 -23.04 -23.04 -22.61 -12.36
        -12.36 -12.36 -11.45 -11.45 -11.45  -9.91  -9.91  -9.91  -9.35  -9.35
[...]
         -5.72  -3.58  -3.58  -3.46  -3.46  -3.46  -2.36  -2.36  -2.36  -1.41
         -1.41  -0.84  -0.84  -0.84  -0.73   0.07   0.07   0.07   1.43   1.43
          1.43   3.61   5.31   5.31   5.31   7.60   7.60   7.60   7.72   7.72
          8.85   8.85   8.85   9.51   9.89   9.89   9.89  10.73  10.73  10.73
         14.18  14.94  14.94  14.94  17.10  17.67  17.67  18.17  18.17  19.51
         19.51  19.70  19.70  19.70  20.52  21.19  21.19  21.19  21.98  21.98
         21.98  26.16  26.16  26.16  29.60  29.63  29.63  29.63  30.42  30.42
         30.42  32.05  32.05  32.05  32.75  32.75  32.75  33.65  33.65  33.65
         34.55  36.33  36.33  36.33  36.58  36.58  37.12  37.85  37.85  37.85
         38.45  38.45  40.62  40.95  40.95  42.16  42.16  42.16  42.62  42.62
         43.74  43.88  43.88  43.88  44.34  44.34  47.49  47.49  47.99  47.99
         47.99  49.32  50.44  50.44  51.84  51.84  51.84  53.58  55.13  55.13
         55.13  55.90  55.90  55.90  58.32  58.32  58.32  59.95  59.95  59.95
         79.30  79.30  79.30  81.03  81.03  81.03  88.43  88.43  88.43  88.87
         89.30  89.30 117.95 117.95 117.95 150.48 150.48 150.48

siesta: Eigenvalues (eV):
  ik is    eps
   1  1 -33.39 -33.38 -33.32 -33.30 -33.20 -33.19 -33.14 -33.05 -33.05 -33.04
        -32.95 -32.95 -23.83 -23.74 -23.60 -23.57 -23.21 -23.20 -23.11 -11.35
        -11.31 -11.30 -10.69 -10.50 -10.46 -10.31 -10.14 -10.07  -9.74  -9.74
         -9.50  -9.34  -9.19  -9.11  -8.91  -8.76  -8.40  -7.61  -7.60  -7.40
         -4.46  -3.52  -3.48  -3.35  -3.02  -2.94  -2.82  -2.39  -2.37  -1.60
         -0.82  -0.79  -0.42  -0.36  -0.36  -0.24   0.07   0.10   0.93   0.99
          2.37   2.85   2.87   3.31   4.86   5.29   5.93   5.94   7.05   8.11
          8.20   9.38  10.50  11.12  11.73  11.88  12.42  12.78  13.39  13.72
         14.27  14.91  15.08  15.37  15.60  15.94  15.95  16.07  16.28  16.47
         17.26  17.92  18.47  20.10  21.11  21.13  22.33  23.18  23.70  23.82
         23.87  24.45  25.35  25.48  25.85  27.47  27.67  29.22  29.73  31.77
         32.33  32.39  32.41  32.87  32.92  33.14  33.29  34.13  34.35  34.76
         35.03  35.58  35.60  37.24  37.46  37.64  38.07  38.52  38.52  38.55
         39.03  39.36  39.49  39.80  40.07  40.67  41.47  41.80  41.94  42.70
         42.84  43.60  43.88  44.35  45.53  46.03  46.50  47.23  47.82  47.92
         48.59  49.31  51.71  51.76  52.44  52.94  55.89  60.89  61.17  61.46
         61.72  62.33  62.79  64.54  66.69  67.19  68.20  70.93  72.08  72.10
         75.03  75.40  75.79  76.18  77.47  78.09  78.60  79.21  82.55  82.77
         83.05  97.14  98.30 100.75 103.34 117.99 120.50 121.71
   1  2 -33.39 -33.38 -33.32 -33.30 -33.20 -33.19 -33.14 -33.05 -33.05 -33.04
        -32.95 -32.95 -23.83 -23.74 -23.60 -23.57 -23.21 -23.20 -23.11 -11.35
        -11.31 -11.30 -10.69 -10.50 -10.46 -10.31 -10.14 -10.07  -9.74  -9.74
         -9.50  -9.34  -9.19  -9.11  -8.91  -8.76  -8.40  -7.61  -7.60  -7.40
         -4.46  -3.52  -3.48  -3.35  -3.02  -2.94  -2.82  -2.39  -2.37  -1.60
         -0.82  -0.79  -0.42  -0.36  -0.36  -0.24   0.07   0.10   0.93   0.99
          2.37   2.85   2.87   3.31   4.86   5.29   5.93   5.94   7.05   8.11
          8.20   9.38  10.50  11.12  11.73  11.88  12.42  12.78  13.39  13.72
         14.27  14.91  15.08  15.37  15.60  15.94  15.95  16.07  16.28  16.47
         17.26  17.92  18.47  20.10  21.11  21.13  22.33  23.18  23.70  23.82
         23.87  24.45  25.35  25.48  25.85  27.47  27.67  29.22  29.73  31.77
         32.33  32.39  32.41  32.87  32.92  33.14  33.29  34.13  34.35  34.76
         35.03  35.58  35.60  37.24  37.46  37.64  38.07  38.52  38.52  38.55
         39.03  39.36  39.49  39.80  40.07  40.67  41.47  41.80  41.94  42.70
         42.84  43.60  43.88  44.35  45.53  46.03  46.50  47.23  47.82  47.92
         48.59  49.31  51.71  51.76  52.44  52.94  55.89  60.89  61.17  61.46
         61.72  62.33  62.79  64.54  66.69  67.19  68.20  70.93  72.08  72.10
         75.03  75.40  75.79  76.18  77.47  78.09  78.60  79.21  82.55  82.77
         83.05  97.14  98.30 100.75 103.34 117.99 120.50 121.71
   2  1 -33.39 -33.36 -33.35 -33.29 -33.22 -33.17 -33.11 -33.07 -33.06 -33.03
        -32.96 -32.95 -23.96 -23.76 -23.54 -23.49 -23.23 -23.19 -23.08 -11.41
        -11.30 -11.26 -10.86 -10.77 -10.60 -10.35 -10.24 -10.10  -9.89  -9.73
         -9.58  -9.32  -9.23  -8.96  -8.54  -8.32  -8.17  -7.65  -7.56  -7.39
         -4.54  -3.55  -3.41  -3.30  -3.07  -2.93  -2.70  -2.46  -2.40  -1.57
         -0.84  -0.74  -0.53  -0.40  -0.31  -0.16   0.06   0.18   0.80   0.97
          2.04   2.60   3.29   3.71   5.00   5.49   6.02   6.04   6.99   8.03
          8.35   9.62  10.17  10.71  11.27  11.79  12.19  12.74  13.25  13.70
         13.88  14.59  15.07  15.22  15.92  16.11  16.27  16.49  16.61  16.89
         17.63  18.15  18.75  20.37  21.01  21.15  22.03  22.91  23.37  23.44
         23.91  24.24  24.77  25.14  25.67  27.19  27.60  29.44  30.23  31.61
         31.87  32.14  32.47  32.70  33.02  33.17  33.95  34.07  34.42  34.80
         35.42  36.27  36.41  36.95  37.68  37.83  37.95  38.06  38.40  38.67
         38.82  39.31  39.49  39.82  40.18  40.66  41.38  41.76  42.46  42.85
         42.91  43.46  44.12  44.47  45.34  46.40  46.61  46.93  47.55  48.37
         48.62  49.24  51.20  51.97  53.39  53.51  55.68  58.14  58.33  58.73
         60.07  61.25  62.58  64.44  64.85  65.96  66.73  71.54  72.85  73.70
         73.96  75.33  76.57  79.52  79.86  81.72  83.31  84.71  85.42  85.60
         86.20  86.48  91.90  94.61  95.29 115.43 117.20 122.10
   2  2 -33.39 -33.36 -33.35 -33.29 -33.22 -33.17 -33.11 -33.07 -33.06 -33.03
        -32.96 -32.95 -23.96 -23.76 -23.54 -23.49 -23.23 -23.19 -23.08 -11.41
        -11.30 -11.26 -10.86 -10.77 -10.60 -10.35 -10.24 -10.10  -9.89  -9.73
[...]
         -4.37  -3.20  -3.20  -3.17  -3.02  -3.02  -2.99  -2.98  -2.98  -1.25
         -1.16  -1.16  -1.11  -1.11  -1.09   1.05   1.05   1.09   1.15   1.15
          1.40   2.14   2.24   2.24   4.05   4.84   4.88   4.88   8.10  10.11
         10.11  10.24  11.91  11.91  12.14  12.67  12.81  12.81  13.05  13.18
         13.18  14.88  14.88  14.92  15.03  15.03  15.24  15.34  15.34  17.92
         18.08  18.08  19.47  19.54  19.54  19.83  19.83  20.05  20.27  20.27
         23.83  25.88  25.88  26.21  26.32  26.32  26.35  27.62  27.62  28.17
         28.50  28.50  28.69  32.67  33.48  33.48  33.55  34.42  34.42  34.55
         38.39  38.39  38.48  38.82  38.82  38.95  38.98  39.37  39.37  39.68
         39.86  39.86  40.86  40.90  40.90  41.49  41.49  42.05  42.22  42.22
         43.51  43.71  43.71  44.87  45.03  45.03  47.21  47.21  51.26  52.80
         52.80  53.13  55.36  56.63  56.63  57.47  59.15  60.64  60.78  60.78
         61.76  61.97  61.97  62.34  62.62  62.62  62.90  62.90  63.46  63.46
         63.93  65.01  65.01  70.95  71.07  71.07  71.41  71.41  72.76  72.76
         73.33  73.96  74.08  74.08  77.83 112.27 112.27 113.62
siesta: Fermi energy =      -4.105035 eV

siesta: Program's energy decomposition (eV):
siesta: Ebs     =     -1535.241538
siesta: Eions   =      7557.999482
siesta: Ena     =       624.163474
siesta: Ekin    =      3559.854877
siesta: Enl     =     -1619.358093
siesta: Eso     =         0.000000
siesta: Eldau   =         0.000000
siesta: DEna    =      -193.472625
siesta: DUscf   =        34.825799
siesta: DUext   =         0.000000
siesta: Exc     =     -1487.126527
siesta: eta*DQ  =         0.000000
siesta: Emadel  =         0.000000
siesta: Emeta   =         0.000000
siesta: Emolmec =         0.000000
siesta: Ekinion =         0.000000
siesta: Eharris =     -6639.112578
siesta: Etot    =     -6639.112578
siesta: FreeEng =     -6639.112578

siesta: Final energy (eV):
siesta:  Band Struct. =   -1535.241538
siesta:       Kinetic =    3559.854877
siesta:       Hartree =    1258.433549
siesta:       Eldau   =       0.000000
siesta:       Eso     =       0.000000
siesta:    Ext. field =       0.000000
siesta:   Exch.-corr. =   -1487.126527
siesta:  Ion-electron =   -6039.987319
siesta:       Ion-ion =   -3930.287158
siesta:       Ekinion =       0.000000
siesta:         Total =   -6639.112578
siesta:         Fermi =      -4.105035

siesta: Atomic forces (eV/Ang):
siesta:      1    0.000000    0.000000    0.000000
siesta:      2   -0.000000   -0.000000   -0.000000
siesta:      3   -0.000000   -0.000000    0.000000
siesta:      4    0.000000    0.000000   -0.000000
siesta:      5   -0.000000   -0.000000   -0.000000
siesta:      6    0.000000   -0.000000    0.000000
siesta:      7   -0.000000   -0.000000   -0.000000
siesta:      8   -0.000000    0.000000    0.000000
siesta:      9   -0.145644   -0.145644   -0.145644
siesta:     10   -0.145644    0.145644    0.145644
siesta:     11    0.145644   -0.145644    0.145644
siesta:     12    0.145644    0.145644   -0.145644
siesta: ----------------------------------------
siesta:    Tot    0.000000    0.000000    0.000000

siesta: Stress tensor (static) (eV/Ang**3):
siesta:     0.014930   -0.000000   -0.000000
siesta:    -0.000000    0.014930   -0.000000
siesta:    -0.000000   -0.000000    0.014930

siesta: Cell volume =        138.767607 Ang**3

siesta: Pressure (static):
siesta:                Solid            Molecule  Units
siesta:          -0.00016261         -0.00022179  Ry/Bohr**3
siesta:          -0.01492997         -0.02036372  eV/Ang**3
siesta:         -23.92070610        -32.62662887  kBar
(Free)E+ p_basis*V_orbitals  =       -6634.106539
(Free)Eharris+ p_basis*V_orbitals  =       -6634.106539

siesta: Total spin polarization (Qup-Qdown) =   -0.000000
>> End of run:  25-JUL-2019  10:36:30
Job completed