>> Start of run:  22-JUL-2019  14:01:33

reinit: Reading from standard input
reinit: Dumped input in INPUT_TMP.68740
************************** Dump of input data file ****************************
# Created by GDIS version 0.90.0
#ZrO2 pure without variable cell
SystemLabel     ZrO2-G
#                       Crystal flags
NumberOfAtoms    12
NumberOfSpecies  2
%block ChemicalSpeciesLabel
    1    8  O
    2   40  Zr
#    3   39  Y
#    4   -8 VO
%endblock ChemicalSpeciesLabel
LatticeConstant 1.0 Ang
%block LatticeParameters
  5.177213    5.177213    5.177213  90.000000  90.000000  90.000000
%endblock LatticeParameters
AtomicCoordinatesFormat Fractional
%block AtomicCoordinatesAndAtomicSpecies
    0.25000000    0.25000000    0.25000000   1       1  O
    0.75000000    0.75000000    0.75000000   1       2  O
    0.75000000    0.75000000    0.25000000   1       3  O
    0.25000000    0.25000000    0.75000000   1       4  O
    0.75000000    0.25000000    0.75000000   1       5  O
    0.25000000    0.75000000    0.25000000   1       6  O
    0.25000000    0.75000000    0.75000000   1       7  O
    0.75000000    0.25000000    0.25000000   1       8  O
   -0.00000000   -0.00000000   -0.00000000   2       9  Zr
   -0.00000000    0.50000000    0.50000000   2      10  Zr
    0.50000000   -0.00000000    0.50000000   2      11  Zr
    0.50000000    0.50000000   -0.00000000   2      12  Zr
%endblock AtomicCoordinatesAndAtomicSpecies
#%block Geometry.Constraints
#atom 1
#%endblock Geometry.Constraints
#                       Basis flags
%block PAO.Basis
 Zr   4
   n=5  0  2
        5.6054862       -0.6003580
        1.000   1.000
   n=4  1  2
        5.5279442       -0.4575023
        1.000           1.000
   n=5  1  1
        4.7571701
        1.000
   n=4  2  2
        6.0921820       -0.5609145
        1.000           1.000
O     3   -0.4158308
 n=2   0   2   E  25.2217485   -0.7787941
   4.1893036           -0.5955594
   1.00000             1.00000
 n=2   1   2   E  13.2644853   -0.7950761
   6.0475603           -0.6742187
   1.00000             1.00000
 n=3   2   1   E  45.9587470   -0.7957318
   3.2675257
   1.00000
%endblock PAO.Basis
#Y    4      0.18480
3 n=5   0   2   E    54.30244     1.81665
#     3.73233     2.17478
#     1.00000     1.00000
# n=4   1   2   E    34.29848     2.87971
#     4.91942     2.39915
#     1.00000     1.00000
# n=5   1   1   E    42.47320     1.98078
#     3.52352
#     1.00000
# n=4   2   2   E    12.30267     2.52239
#     5.23907     3.07050
#     1.00000     1.00000
#VO     3   -0.4158308
# n=2   0   2   E  25.2217485   -0.7787941
#   4.1893036           -0.5955594
#   1.00000             1.00000
# n=2   1   2   E  13.2644853   -0.7950761
#   6.0475603           -0.6742187
#   1.00000             1.00000
# n=3   2   1   E  45.9587470   -0.7957318
#   3.2675257
#   1.00000
#%block kgrid_Monkhorst_Pack
#3    0    0     0.0
#0    3    0     0.0
#0    0    3     0.0
#%endblock kgrid_Monkhorst_Pack
MeshCutoff 		600  Ry
XC.functional 		GGA
XC.authors 		revPBE
SpinPolarized           .true.
#                       DM flags
DM.MixingWeight 	0.20
DM.NumberPulay          4
DM.UseSaveDM            .true.
DM.Tolerance 		1.0d-4
MaxSCFIterations 	150
#                       MD flags
MD.MaxCGDispl           0.1 Bohr
MD.TypeOfRun            CG
MD.VariableCell         .true.
MD.NumCGsteps           0
MD.MaxForceTol          0.04000 eV/Ang
MD.UseSaveXV            .true.
#                       Electronic flags
ElectronicTemperature   5 K
NumberOfEigenStates     800
#COOP.Write             .true.
#WFS.Write.For.Bands    .true.
#BandLinesScale ReciprocalLatticeVectors
#%block BandLines
  1  0.000 0.000 0.000  \Gamma
 200  0.500 0.500 0.000  M
 200  0.000 0.500 0.000  X
 200  0.000 0.000 0.000  \Gamma
 200  0.500 0.500 0.500  R
 200  0.000 0.000 0.000  \Gamma
#%endblock BandLines
UseNewDiagk            .false.
Diag.ParallelOverK     .false.
LongOutput
WriteMDHistory         .true.
WriteMDXmol            .true.
%block kgrid_Monkhorst_Pack
   9   0   0       0.00
   0   9   0       0.00
   0   0   9       0.00
%endblock kgrid_Monkhorst_Pack
#SaveTotalPotential T
WriteMullikenPop 3
************************** End of input data file *****************************

reinit: -----------------------------------------------------------------------
reinit: System Name:
reinit: -----------------------------------------------------------------------
reinit: System Label: ZrO2-G
reinit: -----------------------------------------------------------------------

initatom: Reading input for the pseudopotentials and atomic orbitals ----------
Species number:   1 Atomic number:    8 Label: O
Species number:   2 Atomic number:   40 Label: Zr

Ground state valence configuration:   2s02  2p04
Reading pseudopotential information in formatted form from O.psf

Pseudopotential generated from a relativistic atomic calculation

Valence configuration for pseudopotential generation:
2s( 2.00) rc: 1.14
2p( 4.00) rc: 1.14
3d( 0.00) rc: 1.14
4f( 0.00) rc: 1.48
Ground state valence configuration:   5s02  4d02
Reading pseudopotential information in formatted form from Zr.psf

Pseudopotential generated from a relativistic atomic calculation

Valence configuration for pseudopotential generation:
5s( 2.00) rc: 3.00
4p( 6.00) rc: 1.49
4d( 2.00) rc: 1.40
4f( 0.00) rc: 1.19
Semicore shell(s) with  6 electrons included in the valence for
Zr
For O, standard SIESTA heuristics set lmxkb to 3
 (one more than the basis l, including polarization orbitals).
Use PS.lmax or PS.KBprojectors blocks to override.
For Zr, standard SIESTA heuristics set lmxkb to 3
 (one more than the basis l, including polarization orbitals).
Use PS.lmax or PS.KBprojectors blocks to override.

<basis_specs>
O                    Z=   8    Mass=  16.000        Charge=-0.41583
Lmxo=2 Lmxkb= 3    BasisType=split      Semic=F
L=0  Nsemic=0  Cnfigmx=2
          i=1  nzeta=2  polorb=0  (2s)
            splnorm:   0.15000
               vcte:    25.222
               rinn:  -0.77879
               qcoe:    0.0000
               qyuk:    0.0000
               qwid:   0.10000E-01
                rcs:    4.1893    -0.59556
            lambdas:    1.0000      1.0000
L=1  Nsemic=0  Cnfigmx=2
          i=1  nzeta=2  polorb=0  (2p)
            splnorm:   0.15000
               vcte:    13.264
               rinn:  -0.79508
               qcoe:    0.0000
               qyuk:    0.0000
               qwid:   0.10000E-01
                rcs:    6.0476    -0.67422
            lambdas:    1.0000      1.0000
L=2  Nsemic=0  Cnfigmx=3
          i=1  nzeta=1  polorb=0  (3d)
            splnorm:   0.15000
               vcte:    45.959
               rinn:  -0.79573
               qcoe:    0.0000
               qyuk:    0.0000
               qwid:   0.10000E-01
                rcs:    3.2675
            lambdas:    1.0000
L=0  Nkbl=1  erefs: 0.17977+309
L=1  Nkbl=1  erefs: 0.17977+309
L=2  Nkbl=1  erefs: 0.17977+309
L=3  Nkbl=1  erefs: 0.17977+309
</basis_specs>

atom: Called for O                     (Z =   8)

read_vps: Pseudopotential generation method:
read_vps: ATM3.3    Troullier-Martins
Total valence charge:    6.00000

read_vps: Pseudopotential includes a core correction:
read_vps: Pseudo-core for xc-correction

xc_check: Exchange-correlation functional:
xc_check: GGA revPBE
V l=0 = -2*Zval/r beyond r=  1.1278
V l=1 = -2*Zval/r beyond r=  1.1278
V l=2 = -2*Zval/r beyond r=  1.1278
V l=3 = -2*Zval/r beyond r=  1.4665
All V_l potentials equal beyond r=  1.4482
This should be close to max(r_c) in ps generation
All pots = -2*Zval/r beyond r=  1.4665

VLOCAL1: 99.0% of the norm of Vloc inside     20.696 Ry
VLOCAL1: 99.9% of the norm of Vloc inside     47.167 Ry
atom: Maximum radius for 4*pi*r*r*local-pseudopot. charge    1.74697
atom: Maximum radius for r*vlocal+2*Zval:    1.52250

KBgen: Kleinman-Bylander projectors:
GHOST: No ghost state for L =  0
   l= 0   rc=  1.620715   el= -1.762453   Ekb= 12.304028   kbcos=  0.151877
GHOST: No ghost state for L =  1
   l= 1   rc=  1.600578   el= -0.659331   Ekb=-10.019323   kbcos= -0.441129
GHOST: No ghost state for L =  2
   l= 2   rc=  1.725262   el=  0.001944   Ekb= -2.779253   kbcos= -0.005180
GHOST: No ghost state for L =  3
   l= 3   rc=  2.271458   el=  0.003066   Ekb= -0.634310   kbcos= -0.000917

KBgen: Total number of  Kleinman-Bylander projectors:   16
atom: -------------------------------------------------------------------------

atom: SANKEY-TYPE ORBITALS:
atom: Selected multiple-zeta basis: split

atom: basis set generated (by rescaling the valence charge)
atom: for an anion of charge  -0.4158

SPLIT: Orbitals with angular momentum L= 0

SPLIT: Basis orbitals for state 2s

   izeta = 1
                 lambda =    1.000000
                     rc =    4.243912
                 energy =   -1.754694
                kinetic =    1.459503
    potential(screened) =   -3.214196
       potential(ionic) =  -10.979225

   izeta = 2
                 rmatch =    2.573941
              splitnorm =    0.174700
                 energy =   -1.531239
                kinetic =    2.385766
    potential(screened) =   -3.917005
       potential(ionic) =  -12.378237

[...]

SPLIT: Basis orbitals for state 2p

[...]

SPLIT: Basis orbitals for state 3d

   izeta = 1
                 lambda =    1.000000
                     rc =    3.305093
                 energy =    2.272910
                kinetic =    3.561671
    potential(screened) =   -1.288760
       potential(ionic) =   -7.031728
atom: Total number of Sankey-type orbitals: 13

atm_pop: Valence configuration (for local Pseudopot. screening):
 2s( 2.00)
 2p( 4.00)
 3d( 0.00)
Vna: chval, zval:    6.00000   6.00000

Vna:  Cut-off radius for the neutral-atom potential:   6.022527
comcore: Pseudo-core radius Rcore=  1.377587

atom: _________________________________________________________________________

<basis_specs>
Zr                   Z=  40    Mass=  91.220        Charge= 0.17977+309
Lmxo=2 Lmxkb= 3    BasisType=split      Semic=T
L=0  Nsemic=0  Cnfigmx=5
          i=1  nzeta=2  polorb=0  (5s)
            splnorm:   0.15000
               vcte:    0.0000
               rinn:    0.0000
               qcoe:    0.0000
               qyuk:    0.0000
               qwid:   0.10000E-01
                rcs:    5.6055    -0.60036
            lambdas:    1.0000      1.0000
L=1  Nsemic=1  Cnfigmx=5
          i=1  nzeta=2  polorb=0  (4p)
            splnorm:   0.15000
               vcte:    0.0000
               rinn:    0.0000
               qcoe:    0.0000
               qyuk:    0.0000
               qwid:   0.10000E-01
                rcs:    5.5279    -0.45750
            lambdas:    1.0000      1.0000
          i=2  nzeta=1  polorb=0  (5p)
            splnorm:   0.15000
               vcte:    0.0000
               rinn:    0.0000
               qcoe:    0.0000
               qyuk:    0.0000
               qwid:   0.10000E-01
                rcs:    4.7572
            lambdas:    1.0000
L=2  Nsemic=0  Cnfigmx=4
          i=1  nzeta=2  polorb=0  (4d)
            splnorm:   0.15000
               vcte:    0.0000
               rinn:    0.0000
               qcoe:    0.0000
[...]
  69 2pz         0.000    0.000    0.000   -0.000
  70 2px         0.001    0.000    0.000    0.000
  71 2py         0.000   -0.000   -0.000   -0.000
  72 2pz         0.000   -0.000    0.000   -0.000
  73 2px        -0.000   -0.000    0.000   -0.000
  74 3dxy        0.000   -0.000    0.000   -0.000
  75 3dyz        0.000   -0.000    0.000   -0.000
  76 3dz2        0.000   -0.000    0.000   -0.000
  77 3dxz        0.000   -0.000    0.000   -0.000
  78 3dx2-y2     0.000    0.000    0.000   -0.000
  79 2s          0.000    0.000    0.000    0.000
  80 2s          0.000    0.000    0.000    0.000
  81 2py        -0.000    0.000   -0.000   -0.000
  82 2pz        -0.000   -0.000   -0.000    0.000
  83 2px        -0.000    0.000   -0.000   -0.000
  84 2py         0.000    0.000    0.000    0.000
  85 2pz         0.000    0.000    0.000    0.000
  86 2px         0.000    0.000    0.000    0.000
  87 3dxy        0.000    0.000    0.000    0.000
  88 3dyz        0.000    0.000    0.000    0.000
  89 3dz2        0.000    0.000    0.000    0.000
  90 3dxz        0.000    0.000    0.000    0.000
  91 3dx2-y2     0.000    0.000    0.000    0.000
  92 2s          0.001    0.000    0.001   -0.000
  93 2s         -0.000    0.000   -0.000    0.000
  94 2py         0.000    0.000    0.001    0.000
  95 2pz         0.000    0.000    0.000    0.000
  96 2px         0.001    0.000    0.000    0.000
  97 2py         0.000   -0.000   -0.000   -0.000
  98 2pz         0.000   -0.000    0.000    0.000
  99 2px        -0.000   -0.000    0.000   -0.000
 100 3dxy        0.000   -0.000    0.000    0.000
 101 3dyz        0.000   -0.000    0.000   -0.000
 102 3dz2        0.000   -0.000    0.000    0.000
 103 3dxz        0.000   -0.000    0.000   -0.000
 104 3dx2-y2     0.000   -0.000    0.000   -0.000
 105 5s          0.000    0.000    0.000    0.000
 106 5s          0.000    0.000    0.000    0.000
 107 4py         0.000    0.000    0.000   -0.000
 108 4pz         0.000    0.000    0.000    0.000
 109 4px         0.000    0.000    0.000   -0.000
 110 4py         0.000    0.000    0.000    0.000
 111 4pz         0.000    0.000    0.000    0.000
 112 4px         0.000    0.000    0.000    0.000
 113 5py         0.000   -0.000    0.000    0.000
 114 5pz        -0.000    0.000   -0.000    0.000
 115 5px         0.000   -0.000    0.000    0.000
 116 4dxy        0.000    0.000    0.000    0.000
 117 4dyz       -0.000    0.000   -0.000    0.000
 118 4dz2        0.000   -0.000    0.000    0.000
 119 4dxz       -0.000    0.000   -0.000    0.000
 120 4dx2-y2     0.000    0.000    0.000   -0.000
 121 4dxy        0.000    0.000    0.000    0.000
 122 4dyz        0.000    0.000    0.000    0.000
 123 4dz2        0.000    0.000    0.000    0.000
 124 4dxz        0.000    0.000    0.000    0.000
 125 4dx2-y2     0.000    0.000    0.000    0.000
 126 5s          0.000    0.000   -0.000    0.000
 127 5s          0.000    0.000    0.000    0.000
 128 4py         0.000    0.000    0.000    0.000
 129 4pz         0.000    0.000    0.000    0.000
 130 4px         0.000   -0.000    0.000    0.000
 131 4py         0.000    0.000    0.000    0.000
 132 4pz         0.000    0.000    0.000    0.000
 133 4px         0.000    0.000    0.000    0.000
 134 5py        -0.000    0.000    0.000    0.000
 135 5pz         0.000   -0.000   -0.000    0.000
 136 5px         0.000    0.000   -0.000   -0.000
 137 4dxy       -0.000    0.000    0.000    0.000
 138 4dyz       -0.000    0.000    0.000    0.000
 139 4dz2        0.000   -0.000    0.000   -0.000
 140 4dxz        0.000    0.000   -0.000    0.000
 141 4dx2-y2     0.000   -0.000    0.000   -0.000
 142 4dxy        0.000    0.000    0.000    0.000
 143 4dyz        0.000    0.000    0.000    0.000
 144 4dz2        0.000    0.000    0.000    0.000
 145 4dxz        0.000    0.000    0.000    0.000
 146 4dx2-y2     0.000    0.000    0.000    0.000
 147 5s         -0.000    0.000    0.000    0.000
 148 5s          0.000    0.000    0.000    0.000
 149 4py         0.000   -0.000    0.000    0.000
 150 4pz         0.000    0.000    0.000    0.000
 151 4px         0.000    0.000    0.000    0.000
 152 4py         0.000    0.000    0.000    0.000
 153 4pz         0.000    0.000    0.000    0.000
 154 4px         0.000    0.000    0.000    0.000
 155 5py        -0.000    0.000    0.000   -0.000
 156 5pz        -0.000   -0.000    0.000    0.000
 157 5px         0.000    0.000   -0.000    0.000
 158 4dxy        0.000    0.000   -0.000    0.000
 159 4dyz       -0.000    0.000    0.000    0.000
 160 4dz2        0.000   -0.000    0.000   -0.000
 161 4dxz        0.000    0.000   -0.000    0.000
 162 4dx2-y2     0.000   -0.000    0.000   -0.000
 163 4dxy        0.000    0.000    0.000    0.000
 164 4dyz        0.000    0.000    0.000    0.000
 165 4dz2        0.000    0.000    0.000    0.000
 166 4dxz        0.000    0.000    0.000    0.000
 167 4dx2-y2     0.000    0.000    0.000    0.000
 168 5s          0.000   -0.000    0.000    0.000
 169 5s          0.000   -0.000    0.000    0.000
 170 4py         0.000    0.000    0.000    0.000
 171 4pz         0.000   -0.000   -0.000    0.000
 172 4px         0.000   -0.000   -0.000   -0.000
 173 4py        -0.000    0.000    0.000    0.000
 174 4pz         0.000   -0.000   -0.000    0.000
 175 4px         0.000   -0.000   -0.000   -0.000
 176 5py        -0.000    0.000    0.000    0.000
 177 5pz         0.000    0.000   -0.000   -0.000
 178 5px         0.000    0.000   -0.000    0.000
 179 4dxy       -0.000    0.000    0.000    0.000
 180 4dyz        0.023    0.000    0.000    0.000
 181 4dz2        0.000   -0.002    0.000   -0.000
 182 4dxz        0.000    0.000    0.023   -0.000
 183 4dx2-y2     0.000    0.000    0.000   -0.002
 184 4dxy       -0.000    0.000    0.000    0.000
 185 4dyz        0.016    0.000    0.000    0.000
 186 4dz2        0.000    0.002   -0.000   -0.000
 187 4dxz        0.000   -0.000    0.016   -0.000
 188 4dx2-y2     0.000   -0.000   -0.000    0.002

mulliken: Overlap Populations between Atoms

                 1       2       3       4       5       6       7       8
           1   6.942   0.002  -0.004  -0.015  -0.004  -0.015  -0.004  -0.015
           2   0.002   6.942  -0.015  -0.004  -0.015  -0.004  -0.015  -0.004
           3  -0.004  -0.015   6.942   0.002  -0.004  -0.015  -0.004  -0.015
           4  -0.015  -0.004   0.002   6.942  -0.015  -0.004  -0.015  -0.004
           5  -0.004  -0.015  -0.004  -0.015   6.942   0.002  -0.004  -0.015
           6  -0.015  -0.004  -0.015  -0.004   0.002   6.942  -0.015  -0.004
           7  -0.004  -0.015  -0.004  -0.015  -0.004  -0.015   6.942   0.002
           8  -0.015  -0.004  -0.015  -0.004  -0.015  -0.004   0.002   6.942
           9   0.063   0.000  -0.000   0.001  -0.000   0.001  -0.000   0.001
          10   0.063   0.001   0.001   0.063   0.001   0.063   0.063   0.001
          11   0.063   0.001   0.001   0.063   0.063   0.001   0.001   0.063
          12   0.063   0.001   0.063   0.001   0.001   0.063   0.001   0.063

[...]

BEGIN mulliken: Atomic and Orbital Populations:

mulliken: Spin UP

Species: O
Atom  Qatom  Qorb
   1  3.534   1.005  -0.041   0.599   0.599   0.599   0.255   0.255   0.255
              0.001   0.001   0.002   0.001   0.002
   2  3.534   1.005  -0.041   0.599   0.599   0.599   0.255   0.255   0.255
              0.001   0.001   0.002   0.001   0.002
   3  3.534   1.005  -0.041   0.599   0.599   0.599   0.255   0.255   0.255
              0.001   0.001   0.002   0.001   0.002
   4  3.534   1.005  -0.041   0.599   0.599   0.599   0.255   0.255   0.255
              0.001   0.001   0.002   0.001   0.002
   5  3.534   1.005  -0.041   0.599   0.599   0.599   0.255   0.255   0.255
              0.001   0.001   0.002   0.001   0.002
   6  3.534   1.005  -0.041   0.599   0.599   0.599   0.255   0.255   0.255
              0.001   0.001   0.002   0.001   0.002
   7  3.534   1.005  -0.041   0.599   0.599   0.599   0.255   0.255   0.255
              0.001   0.001   0.002   0.001   0.002
   8  3.534   1.005  -0.041   0.599   0.599   0.599   0.255   0.255   0.255
              0.001   0.001   0.002   0.001   0.002

[...]

mulliken: Qtot =       44.000

mulliken: Spin DOWN

[...]

Species: Zr
Atom  Qatom  Qorb
   9  3.932   0.062  -0.016   0.984   0.984   0.984   0.024   0.024   0.024
              0.010   0.010   0.010   0.172   0.172   0.113   0.172   0.113

[...]

              0.029   0.029   0.001   0.029   0.001

mulliken: Qtot =       44.000

END mulliken: Atomic and Orbital Populations

outcell: Unit cell vectors (Ang):
        5.177213    0.000000    0.000000
        0.000000    5.177213    0.000000
        0.000000    0.000000    5.177213

outcell: Cell vector modules (Ang)   :    5.177213    5.177213    5.177213
outcell: Cell angles (23,13,12) (deg):     90.0000     90.0000     90.0000
outcell: Cell volume (Ang**3)        :    138.7676

siesta: Eigenvalues (eV):
  ik is    eps
   1  1 -33.79 -33.79 -33.79 -33.77 -33.68 -33.62 -33.62 -33.57 -33.47 -33.46
        -33.46 -33.45 -24.11 -23.93 -23.93 -23.84 -23.46 -23.45 -23.45 -23.39
        -11.68 -11.64 -11.62 -11.62 -10.87 -10.58 -10.58 -10.39 -10.37 -10.37
        -10.27  -9.84  -9.75  -9.47  -9.40  -9.38  -9.38  -8.94  -8.94  -8.56
         -7.78  -7.72  -7.72  -7.61  -3.58  -3.54  -3.54  -3.54  -2.81  -2.77
         -2.77  -2.72  -0.90  -0.82  -0.78  -0.78  -0.69  -0.65  -0.65  -0.40
          0.48   0.59   0.59   0.80   3.01   3.44   3.44   3.81   5.62   5.62
          5.63   5.63   8.68   8.93   8.93   9.02  11.76  11.76  12.01  12.02
         12.93  12.93  13.30  13.30  14.77  14.77  15.16  15.32  15.55  15.55
         15.70  15.70  16.13  16.78  16.78  17.44  20.89  20.94  20.94  20.96
         22.76  23.05  23.05  23.25  24.46  24.80  24.80  24.90  26.79  27.55
         27.55  28.39  31.75  31.84  31.84  32.29  32.29  32.34  32.58  32.92
         33.40  34.42  34.42  34.99  35.18  35.64  35.90  35.90  36.98  37.52
         37.52  38.25  38.74  38.93  39.21  39.21  39.66  40.80  40.80  40.84
         41.13  41.13  41.55  42.14  42.39  42.39  42.51  42.60  43.05  44.13
         44.14  44.14  47.56  49.01  49.01  50.92  51.16  51.16  51.63  51.87
         60.43  60.84  60.84  63.70  64.74  65.52  65.52  67.21  67.21  67.79
         70.75  72.55  74.09  74.46  74.46  76.04  76.09  76.35  76.69  76.69
         78.66  82.30  82.56  82.56  99.60 101.25 102.66 102.66
   1  2 -33.79 -33.79 -33.79 -33.77 -33.68 -33.62 -33.62 -33.57 -33.47 -33.46
        -33.46 -33.45 -24.11 -23.93 -23.93 -23.84 -23.46 -23.45 -23.45 -23.39
        -11.68 -11.64 -11.62 -11.62 -10.87 -10.58 -10.58 -10.39 -10.37 -10.37
        -10.27  -9.84  -9.75  -9.47  -9.40  -9.38  -9.38  -8.94  -8.94  -8.56
         -7.78  -7.72  -7.72  -7.61  -3.58  -3.54  -3.54  -3.54  -2.81  -2.77
         -2.77  -2.72  -0.90  -0.82  -0.78  -0.78  -0.69  -0.65  -0.65  -0.40
          0.48   0.59   0.59   0.80   3.01   3.44   3.44   3.81   5.62   5.62
          5.63   5.63   8.68   8.93   8.93   9.02  11.76  11.76  12.01  12.02
         12.93  12.93  13.30  13.30  14.77  14.77  15.16  15.32  15.55  15.55
         15.70  15.70  16.13  16.78  16.78  17.44  20.89  20.94  20.94  20.96
         22.76  23.05  23.05  23.25  24.46  24.80  24.80  24.90  26.79  27.55
         27.55  28.39  31.75  31.84  31.84  32.29  32.29  32.34  32.58  32.92
         33.40  34.42  34.42  34.99  35.18  35.64  35.90  35.90  36.98  37.52
         37.52  38.25  38.74  38.93  39.21  39.21  39.66  40.80  40.80  40.84
         41.13  41.13  41.55  42.14  42.39  42.39  42.51  42.60  43.05  44.13
         44.14  44.14  47.56  49.01  49.01  50.92  51.16  51.16  51.63  51.87
         60.43  60.84  60.84  63.70  64.74  65.52  65.52  67.21  67.21  67.79
         70.75  72.55  74.09  74.46  74.46  76.04  76.09  76.35  76.69  76.69
         78.66  82.30  82.56  82.56  99.60 101.25 102.66 102.66
   2  1 -33.81 -33.79 -33.78 -33.74 -33.73 -33.66 -33.57 -33.53 -33.49 -33.49
        -33.46 -33.44 -24.26 -24.02 -23.77 -23.74 -23.51 -23.47 -23.44 -23.32
        -11.74 -11.64 -11.61 -11.56 -11.14 -10.91 -10.85 -10.74 -10.55 -10.26
         -9.96  -9.89  -9.85  -9.74  -9.31  -9.24  -8.87  -8.81  -8.37  -8.20
         -7.87  -7.83  -7.68  -7.56  -3.56  -3.47  -3.44  -3.40  -2.92  -2.89
         -2.81  -2.73  -1.02  -0.96  -0.89  -0.86  -0.61  -0.52  -0.45  -0.14
          0.28   0.31   0.60   0.91   2.58   3.07   3.94   4.27   5.67   5.71
          5.73   5.73   8.56   8.96   9.27   9.30  11.01  11.32  11.52  11.69
         12.78  12.87  13.32  13.52  14.02  14.99  15.06  15.34  15.72  15.93
         16.20  16.23  16.23  16.35  17.45  18.13  20.50  20.59  20.92  20.94
         22.66  22.90  23.10  23.17  23.92  24.38  24.50  24.86  26.49  27.28
         28.23  29.25  31.49  31.59  31.73  31.77  32.20  32.50  32.94  33.00
         33.58  33.80  35.18  35.41  35.87  35.96  36.48  36.58  36.66  37.17
         37.71  37.80  38.42  38.50  38.88  39.76  39.84  40.17  40.34  40.67
         40.98  41.98  42.07  42.24  42.36  42.81  42.83  43.56  43.56  44.02
         44.20  44.47  45.95  47.26  49.75  50.74  51.05  51.55  52.75  52.98
         57.18  58.45  58.62  59.77  63.14  63.55  64.30  64.37  65.55  69.34
         72.06  72.68  73.31  73.48  73.99  76.10  79.51  81.42  83.02  84.21
         84.58  84.76  84.89  85.49  86.14  93.13  94.25  95.58
   2  2 -33.81 -33.79 -33.78 -33.74 -33.73 -33.66 -33.57 -33.53 -33.49 -33.49
        -33.46 -33.44 -24.26 -24.02 -23.77 -23.74 -23.51 -23.47 -23.44 -23.32
        -11.74 -11.64 -11.61 -11.56 -11.14 -10.91 -10.85 -10.74 -10.55 -10.26
[...]
         -8.64  -8.58  -8.58  -8.58  -3.41  -3.41  -3.41  -3.41  -3.41  -3.40
         -3.40  -3.40  -1.53  -1.53  -1.53  -1.51   0.70   0.70   0.70   0.77
          0.77   0.77   0.82   0.82   2.14   2.24   2.24   2.24   4.98   5.05
          5.05   5.05  11.34  11.34  11.34  11.56  12.36  12.36  12.37  12.37
         12.37  12.69  12.69  12.69  14.59  14.59  14.59  14.93  14.93  14.93
         14.95  14.95  17.72  17.89  17.89  17.89  19.14  19.14  19.14  19.16
         19.16  19.16  19.38  19.38  25.81  25.81  26.03  26.03  26.03  26.13
         26.13  26.13  27.20  27.56  27.56  27.56  32.32  32.32  32.32  32.47
         37.90  37.90  37.90  37.94  38.44  38.44  38.44  38.59  38.59  38.67
         38.67  38.67  39.02  39.02  39.02  39.93  40.58  40.58  40.58  40.72
         40.72  40.76  40.76  40.76  43.11  43.11  43.11  43.28  43.28  43.80
         43.80  43.80  53.41  55.54  55.54  55.54  56.71  56.71  56.71  59.63
         60.23  60.23  60.23  61.43  61.43  61.43  61.43  61.43  61.93  61.93
         61.93  62.64  62.64  63.13  63.13  63.13  70.45  70.45  70.45  71.21
         71.21  72.37  72.37  72.37  72.85  72.85  72.85  77.24
siesta: Fermi energy =      -5.435527 eV

siesta: Program's energy decomposition (eV):
siesta: Ebs     =     -1653.165794
siesta: Eions   =      8162.654689
siesta: Ena     =       702.718973
siesta: Ekin    =      3884.693819
siesta: Enl     =     -1731.065456
siesta: Eso     =         0.000000
siesta: Eldau   =         0.000000
siesta: DEna    =      -224.855669
siesta: DUscf   =        40.267041
siesta: DUext   =         0.000000
siesta: Enegf   =         0.000000
siesta: Exc     =     -1590.881973
siesta: eta*DQ  =         0.000000
siesta: Emadel  =         0.000000
siesta: Emeta   =         0.000000
siesta: Emolmec =         0.000000
siesta: Ekinion =         0.000000
siesta: Eharris =     -7081.777953
siesta: Etot    =     -7081.777953
siesta: FreeEng =     -7081.777953

siesta: Final energy (eV):
siesta:  Band Struct. =   -1653.165794
siesta:       Kinetic =    3884.693819
siesta:       Hartree =    1231.186085
siesta:       Eldau   =       0.000000
siesta:       Eso     =       0.000000
siesta:    Ext. field =       0.000000
siesta:       Enegf   =       0.000000
siesta:   Exch.-corr. =   -1590.881973
siesta:  Ion-electron =   -6297.869584
siesta:       Ion-ion =   -4308.906300
siesta:       Ekinion =       0.000000
siesta:         Total =   -7081.777953
siesta:         Fermi =      -5.435527

siesta: Stress tensor (static) (eV/Ang**3):
siesta:    -0.001875   -0.000000    0.000000
siesta:    -0.000000   -0.001875    0.000000
siesta:    -0.000000    0.000000   -0.001875

siesta: Cell volume =        138.767607 Ang**3

siesta: Pressure (static):
siesta:                Solid            Molecule  Units
siesta:           0.00002043          0.00002043  Ry/Bohr**3
siesta:           0.00187545          0.00187545  eV/Ang**3
siesta:           3.00483355          3.00483357  kBar
(Free)E+ p_basis*V_orbitals  =       -7076.771914
(Free)Eharris+ p_basis*V_orbitals  =       -7076.771914
     spin moment: S , {S} =   -0.00000       0.0       0.0  -0.00000

>> End of run:  22-JUL-2019  14:02:40
Job completed